max_width = 29;
n_blocks = 24;
width = [5, 4, 4, 3, 4, 3, 3, 5, 4, 3, 3, 4, 3, 3, 4, 3, 4, 5, 3, 4, 3, 3, 4, 3];
height = [17, 20, 18, 20, 15, 18, 15, 8, 9, 11, 10, 7, 9, 8, 6, 7, 5, 4, 6, 4, 5, 4, 3, 3];
